CapLotSizing_PM/src/Instancias/TCLSHT/25i18p2m/NBA05.dat
25 18 2
 1
      4446
      4446
    2
     3
     4
     4
     2
     3
     2
     3
     3
     3
     3
     4
     2
     2
     2
     2
     4
     3
     3
     2
     3
     3
     2
     3
     3
   4.2  36.2   717    18 
  2.1  48.1   415    24 
  1.3  64.8   862    23 
  4.6  46.3   467    23 
  2.9  33.2   594    24 
  4.4  38.2   364    21 
  4.6  29.6   580    22 
  2.1  51.0   433    18 
  4.7  30.2   363    20 
  3.4  28.5   734    22 
  3.7  18.9   123    25 
  3.5  70.9   351    23 
  4.4  24.6   927    22 
  2.4  52.8   828    23 
  2.2  60.5   222    24 
  1.5  36.0   906    23 
  1.7  30.4   433    19 
  5.0  15.9   596    23 
  1.9  46.8   715    17 
  1.6  34.8   532    20 
  4.8  54.2   831    18 
  1.3  51.4   439    19 
  4.9  38.0   404    25 
  2.9  26.7   309    22 
  4.8  44.3   613    19 
  2.9  32.4   228    24 
  3.4  53.8   747    20 
  1.3  16.7   216    24 
  2.3  39.4   838    24 
  4.2  55.8   924    17 
  4.3  17.5   466    24 
  3.9  57.7   436    25 
  1.5  27.8   434    20 
  3.9  24.2   448    18 
  3.5  62.1   657    20 
  2.2  67.0   469    19 
  4.0  51.8   919    21 
  2.7  70.6   523    20 
  5.0  45.5   759    20 
  4.9  54.5   391    21 
  4.4  71.9   106    16 
  2.3  48.4   664    24 
  1.8  69.0   630    23 
  1.3  71.7   947    17 
  4.9  55.0   150    16 
  2.0  19.2   905    23 
  1.3  32.3   946    18 
  2.5  31.4   893    18 
  1.8  38.7   651    20 
  1.6  26.4   482    21 
  177   154    64   110    19   113    79    56    10   116   143    45   158    78   179 
  119   126    50     5   179    14    85   124    12    50    79   153   156   165   105 
  143    94     3   178    87   177    13   111    42    36    24    76   106   143   165 
   63   102   161   103    44    82    52    35   107    16    84   134   110    15   156 
   78   152     0     3    55    24   155    37   134   100   169   149    14   102   115 
   21   134   142     1    42   179    80   134     4   145    36    84   131     2   145 
   80   149   157   116   147   159    32     9    76    93    96   128   128     2   145 
  161   122   101    34   110    44   150    97   141   112    93    63   114   131   103 
   60    69    97    87   140   118    59    27   151   151    40    72   107   161   133 
  119    17    82    79    60    85    89    76     8   170   179    87    78    78    81 
   87   172    76   174    17   168    19   121   102   109    94   148   139   153    41 
  147   164    67   178    93    68    51   141    35    37    12    10   173   145    38 
   72    60    20    41   126    75   139   170   155   112    88   147    52   140   117 
    6     7    66   158    38    12    78   140    68    71   157   116    24     2    13 
   71   108    98    28   142   104   175     3    20    24    86    25     0    58    19 
   34   146   113    42   175    24   116    52   100    62   162   173    52   123   175 
   54   171    76   166    32    12   166    96   107     7   123   134   139   126    24 
  118    41    96   150     1   102    21   103    68    80   125    75    59    64   154 
   10   114    85   169    63    24    18   141    16   146 
   62    97   172   117    99   153    18     8    15    43 
   66    44   143    19   133    18   127   140   174    30 
  164    37   103   144    19    60   157    63   150   153 
  174   147    10     1    82    12    68   167    47   178 
   56   158    37    47    24   158    25    96     7   154 
  161    73   159    65    47    20    46    94    76    73 
   50    89   151    88     6     3    27   152   155   103 
   21    87   121   136    92   120   136    30    52    18 
  124   119    86    62    44   172    47   129    71    48 
   80   125   140    94     8    16    27    16    94   117 
  177    98    28   159   159    80    94    70   177   109 
  102    41    33    22   146   142   134    67    20   144 
  110   118    33   165   103    52   135     7   175    40 
   72    32   131    43    22   165   139    39    18    48 
   62    91    67   129   107   123   119   110   164    78 
  145    11    30   175   156    49    76   123    47    62 
   96   102    70   119    80    15    56   116   117   119 
